(set-info :smt-lib-version 2.6)
(set-logic QF_S)
(set-info :source |
Generated by: Andrew Reynolds
Generated on: 2020-02-27
Generator: CVC4
Application: Testing of string solvers
Target solver: CVC4
|)
(set-info :license "https://creativecommons.org/licenses/by/4.0/")
(set-info :category "random")
(set-info :status unknown)
(declare-fun x () String)
(assert (let ((_let_0 (str.in_re x (re.++ (re.* re.allchar ) re.allchar  (re.* re.allchar ) (str.to_re "B") (re.* re.allchar ) (str.to_re (str.++ "A" (str.++ "C" "B"))) (re.* re.allchar ))))) (and (not (= _let_0 (str.in_re x (re.++ (re.* re.allchar ) re.allchar  (re.* re.allchar ) re.allchar  (re.* re.allchar ) (str.to_re (str.++ "C" (str.++ "C" (str.++ "B" "C")))) (re.* re.allchar ))))) (not (= (str.in_re x (re.++ (re.* re.allchar ) re.allchar  (re.* re.allchar ) (str.to_re (str.++ "A" (str.++ "A" (str.++ "B" "B")))) (re.* re.allchar ) re.allchar  (re.* re.allchar ))) _let_0)))))
(check-sat)
(exit)
